NAME : n80w200.005.621.tour
COMMENT : Length = 621
COMMENT : Found by LKH [Keld Helsgaun] Tue May  2 05:52:31 2017
TYPE : TOUR
DIMENSION : 81
TOUR_SECTION
1
58
46
51
44
16
26
12
34
20
50
2
15
37
67
77
39
40
73
31
70
17
65
21
24
78
19
60
75
80
74
6
53
48
9
61
47
45
25
7
8
32
18
22
54
13
63
55
28
62
43
33
23
79
35
49
10
68
76
5
14
52
4
3
64
59
41
29
72
71
30
38
69
27
11
56
66
36
81
42
57
-1
EOF
